; benchmark generated from python API
(set-info :status unknown)
(declare-datatypes ((IntState 0)) (((Mk1 (val1 Int)) (Mk2 (val2 Int)))))
 (declare-fun |c_mult_#res| () Int)
(declare-fun |c_mult_#in~n| () Int)
(declare-fun c_mult_~n () Int)
(assert
 (let (($x37 (exists ((v_nnf_32_st IntState) (val!36 Int) )(exists ((v_nnf_33_st IntState) (val!37 Int) )(let (($x67 (<= (+ (* 2 (val2 v_nnf_32_st)) (* 2 (val2 v_nnf_33_st)) |c_mult_#in~n| 1) |c_mult_#res|)))
 (let (($x122 (and (<= |c_mult_#in~n| (val2 v_nnf_33_st)) $x67 (<= (val2 v_nnf_33_st) (val2 v_nnf_32_st)))))
 (let (($x52 (not (= v_nnf_33_st (Mk1 val!37)))))
 (let (($x108 (not (= v_nnf_32_st (Mk1 val!36)))))
 (and $x108 $x52 $x122))))))
 )
 ))
 (let (($x29 (<= |c_mult_#in~n| c_mult_~n)))
 (let (($x147 (exists ((v_nnf_31 Int) )(exists ((v_nnf_30 Int) )(let (($x29 (<= |c_mult_#in~n| c_mult_~n)))
 (let (($x150 (<= v_nnf_30 v_nnf_31)))
 (let (($x155 (<= (+ c_mult_~n (* 2 v_nnf_31) (* 2 v_nnf_30) 1) |c_mult_#res|)))
 (and $x155 (<= c_mult_~n v_nnf_30) $x150 $x29)))))
 )
 ))
 (and $x147 (not (and $x29 $x37)))))))
(check-sat)
